Optimal - objective value 7.00000000
      0 x_0_0                       1                       1
      2 x_1_1                       1                       1
      4 x_2_1                       1                       0
      9 x_3_3                       1                       1
     14 x_4_4                       1                       1
     18 x_5_3                       1                       0
     27 x_6_6                       1                       1
     35 x_7_7                       1                       0
     36 x_8_0                       1                       0
     52 x_9_7                       1                       0
     58 x_10_3                      1                       0
     72 x_11_6                      1                       0
     82 x_12_4                      1                       0
    104 x_13_13                     1                       1
    118 x_14_13                     1                       0
    120 x_15_0                      1                       0
    149 x_16_13                     1                       0
    154 x_17_1                      1                       0
    184 x_18_13                     1                      -1
    197 x_19_7                      1                       0
    213 x_20_3                      1                       0
    232 x_21_1                      1                       0
    266 x_22_13                     1                       0
    280 x_23_4                      1                       0
    303 x_24_3                      1                       0
